 &control
    calculation = 'scf'
    prefix = 'Au'
    title = 'Au2000Kscf'
    tstress = .true.
    tprnfor = .true.
    pseudo_dir = '../pseudo'
    outdir = './ref'
    wf_collect = .true.
 /

 &system
    ibrav = 1
    celldm(1) = 15.420
    nat = 32 
    ntyp = 1
    occupations = 'smearing'
    degauss = 0.007
    ecutwfc = 48.0
 /

 &electrons
    diagonalization = 'david'
    conv_thr =  1.0d-10
 /

 &srb
  use_srb = .true.
  freeze_basis = 1.d-10
  trace_tol = 1.d-11
  basis_life = 1
  min_aux_size = 100
 /

ATOMIC_SPECIES
 Au  197.0  Au.LDA_TM.UPF

ATOMIC_POSITIONS (angstrom)	
Au -0.571253     -0.066015    -0.016378
Au 2.077692     2.210768    0.221389
Au -0.335528     2.188566    1.864659
Au 1.593656     0.045962    1.937938
Au 3.896140     0.087842    0.016606
Au -2.056786     2.149410    -0.138418
Au -3.768710     1.969850    2.085380
Au -2.125709     -0.101868    2.116347
Au 0.097966     -4.236220    0.086790
Au 2.085966     -1.872530    -0.104071
Au 0.012784     -2.118366    2.001413
Au 2.093538     4.150972    2.183972
Au 4.087340     -4.404757    -0.012347
Au -2.060500     -2.083392    -0.296349
Au 4.164261     -2.229990    1.930891
Au -2.025946     4.245763    2.182353
Au 0.125857     -0.163761    -4.048948
Au 1.863312     2.052846    3.590113
Au 0.284081     2.094684    -2.265389
Au 2.174923     0.221794    -1.834848
Au 4.246530     -0.033198    -4.161171
Au -2.006283     1.968451    -3.875031
Au -4.363022     2.236060    -2.116483
Au -2.135207     0.040048    -2.133195
Au -0.009165     -4.164372    3.732375
Au 2.110850     -2.023802    -3.892955
Au -0.091946     -2.098661    -1.701171
Au 1.955460     4.175577    -1.768813
Au 4.117935     -4.422320    -4.126499
Au -1.781414     -2.114047    -3.665381
Au 4.073848     -1.668694    -2.156846
Au -1.834787     3.939178    -2.185151

K_POINTS automatic
 4 4 4 0 0 0

Q_POINTS crystal
 7
 0.0 0.0 0.0 1.0
 0.5 0.0 0.0 1.0
 0.0 0.5 0.0 1.0
 0.0 0.0 0.5 1.0
 0.0 0.5 0.5 1.0
 0.5 0.5 0.0 1.0
 0.5 0.0 0.5 1.0

&system
 ecutwfc = 56 
/
@run

 &control
  calculation = 'nscf'
 /

 &system
  nosym = .true.
 /

  K_POINTS crystal_b
  8
  0.0  0.0  0.0  4
  0.5  0.0  0.0  4
  0.5  0.5  0.0  4
  0.0  0.0  0.0  4
  0.5  0.5  0.5  4
  0.5  0.0  0.0  0
  0.5  0.5  0.0  4
  0.5  0.5  0.5  0

&system
 ecutwfc = 56 
/
@run


